16
meta-xylylene, B3LYP optimised geometry
C                0.0000000000        0.0000000000        1.3984472733
H                0.0000000000        0.0000000000        2.4859073286
C               -0.0000000000        0.0000000000       -1.4051760785
H               -0.0000000000        0.0000000000       -2.4920882239
C               -1.2443431148        0.0000000000        0.7135129354
C                1.2443431148       -0.0000000000        0.7135129354
C               -1.2116931408        0.0000000000       -0.7204174728
C                1.2116931408        0.0000000000       -0.7204174728
C               -2.4612599728        0.0000000000        1.4106518075
C                2.4612599728        0.0000000000        1.4106518075
H               -2.1506999205        0.0000000000       -1.2667317623
H                2.1506999205        0.0000000000       -1.2667317623
H               -2.4869619022        0.0000000000        2.4951587166
H                2.4869619022       -0.0000000000        2.4951587166
H               -3.4097382286        0.0000000000        0.8842806258
H                3.4097382286        0.0000000000        0.8842806258