10
trimethylenemethane, B3LYP optimised geometry
C    -0.0000000000        0.0000000000       -0.0000000000
C    -0.7076746391        1.2257284301       -0.0000000000
C    -0.7076746391       -1.2257284301       -0.0000000000
C     1.4153492781        0.0000000000       -0.0000000000
H    -1.7921509129        1.2473957268       -0.0000000000
H    -0.1842009315       -2.1757460813       -0.0000000000
H     1.9763518444       -0.9283503546        0.0000000000
H    -0.1842009315        2.1757460813        0.0000000000
H    -1.7921509129       -1.2473957268        0.0000000000
H     1.9763518444        0.9283503546        0.0000000000